c FILE			: out/rand-16-64.gr
c No. of vertices	: 16
c No. of directed edges	: 64
c Max. weight		: 100
c Min. weight		: 0
c A directed arc from u to v of weight w
c is represented below as ' a  u  v  w '
p sp 16 64
a 1 10 59
a 1 11 15
a 1 13 24
a 1 15 68
a 1 9 3
a 2 3 60
a 2 16 17
a 2 11 79
a 3 16 87
a 3 14 21
a 3 7 99
a 3 14 20
a 3 12 34
a 3 13 21
a 4 10 65
a 4 15 64
a 4 7 86
a 4 11 15
a 4 12 25
a 4 2 73
a 5 3 57
a 5 14 84
a 6 10 4
a 6 3 22
a 6 14 2
a 6 5 58
a 6 5 58
a 7 15 49
a 7 6 41
a 8 13 66
a 8 15 55
a 8 15 78
a 8 7 58
a 8 15 93
a 8 16 82
a 8 11 61
a 8 3 44
a 9 6 73
a 10 11 8
a 10 12 61
a 10 15 45
a 11 1 65
a 11 13 33
a 11 14 44
a 12 13 87
a 12 11 69
a 12 13 89
a 12 9 46
a 13 7 12
a 13 16 21
a 13 12 38
a 13 14 99
a 13 7 95
a 13 10 82
a 13 15 70
a 13 4 11
a 13 12 96
a 14 3 98
a 14 5 65
a 14 3 94
a 15 6 27
a 15 4 21
a 16 5 27
a 16 5 68
